Route #1: 2 4 18 5
Route #2: 47 26 25 7 40 48 34
Route #3: 32 19 29 28 1
Route #4: 21 42 17 8 15
Route #5: 41 45 39 35 10 3
Route #6: 13 23 46 22 38 14 30
Route #7: 36 43 11 16 24 49 33 9 12
Route #8: 6 31 20 27 37 44
Cost 1367